
Gurobi 9.5.2 (win64) logging started Thu Sep  8 18:12:22 2022

Set parameter LogFile to value "../Logs/solve1.log"
Gurobi Optimizer version 9.5.2 build v9.5.2rc0 (win64)
Thread count: 6 physical cores, 12 logical processors, using up to 12 threads
Optimize a model with 9773 rows, 2679 columns and 31717 nonzeros
Model fingerprint: 0xe54f1456
Variable types: 0 continuous, 2679 integer (2679 binary)
Coefficient statistics:
  Matrix range     [1e+00, 3e+01]
  Objective range  [1e+00, 1e+00]
  Bounds range     [1e+00, 1e+00]
  RHS range        [1e+00, 1e+00]
Found heuristic solution: objective 25.0000000
Presolve removed 5640 rows and 1452 columns
Presolve time: 0.12s
Presolved: 4133 rows, 1227 columns, 16081 nonzeros
Variable types: 0 continuous, 1227 integer (1227 binary)

Root relaxation: objective 6.222817e+00, 2437 iterations, 0.11 seconds (0.20 work units)

    Nodes    |    Current Node    |     Objective Bounds      |     Work
 Expl Unexpl |  Obj  Depth IntInf | Incumbent    BestBd   Gap | It/Node Time

     0     0    6.22282    0  368   25.00000    6.22282  75.1%     -    0s
H    0     0                      21.0000000    6.22282  70.4%     -    0s
H    0     0                      20.0000000    6.22282  68.9%     -    0s
H    0     0                      17.0000000    6.22282  63.4%     -    0s
     0     0    7.83402    0  331   17.00000    7.83402  53.9%     -    0s
H    0     0                      16.0000000    7.83402  51.0%     -    0s
     0     0    7.89464    0  328   16.00000    7.89464  50.7%     -    0s
     0     0    7.90127    0  339   16.00000    7.90127  50.6%     -    0s
     0     0    7.90281    0  335   16.00000    7.90281  50.6%     -    0s
     0     0    7.90296    0  337   16.00000    7.90296  50.6%     -    0s
     0     0    8.43406    0  316   16.00000    8.43406  47.3%     -    1s
     0     0    8.59414    0  349   16.00000    8.59414  46.3%     -    1s
     0     0    8.67059    0  335   16.00000    8.67059  45.8%     -    1s
     0     0    8.69980    0  348   16.00000    8.69980  45.6%     -    1s
     0     0    8.71194    0  335   16.00000    8.71194  45.6%     -    1s
     0     0    8.71684    0  337   16.00000    8.71684  45.5%     -    1s
     0     0    8.71894    0  344   16.00000    8.71894  45.5%     -    1s
     0     0    8.71932    0  344   16.00000    8.71932  45.5%     -    1s
     0     0    8.78008    0  327   16.00000    8.78008  45.1%     -    1s
     0     0    8.79893    0  307   16.00000    8.79893  45.0%     -    1s
     0     0    8.80247    0  340   16.00000    8.80247  45.0%     -    1s
     0     0    8.80674    0  319   16.00000    8.80674  45.0%     -    1s
     0     0    8.80860    0  318   16.00000    8.80860  44.9%     -    1s
     0     0    8.80869    0  338   16.00000    8.80869  44.9%     -    1s
     0     0    8.82672    0  315   16.00000    8.82672  44.8%     -    1s
H    0     0                      14.0000000    8.82672  37.0%     -    1s
     0     0    8.83200    0  309   14.00000    8.83200  36.9%     -    1s
     0     0    8.83378    0  311   14.00000    8.83378  36.9%     -    1s
     0     0    8.83424    0  316   14.00000    8.83424  36.9%     -    1s
     0     0    8.83729    0  316   14.00000    8.83729  36.9%     -    1s
H    0     0                      13.0000000    8.83729  32.0%     -    1s
     0     0    8.83964    0  323   13.00000    8.83964  32.0%     -    1s
     0     0    8.83976    0  318   13.00000    8.83976  32.0%     -    1s
     0     0    8.84071    0  321   13.00000    8.84071  32.0%     -    2s
     0     0    8.84089    0  330   13.00000    8.84089  32.0%     -    2s
     0     0    8.84157    0  334   13.00000    8.84157  32.0%     -    2s
     0     0    8.84157    0  313   13.00000    8.84157  32.0%     -    2s
H    0     0                      12.0000000    8.84157  26.3%     -    2s
H    0     0                      11.0000000    8.84169  19.6%     -    5s
     0     2    8.84169    0  313   11.00000    8.84169  19.6%     -    5s
   828   653   10.00000   13  160   11.00000    8.92868  18.8%   193   10s
  1269   934    9.52808   35  313   11.00000    8.99335  18.2%   209   15s
  1306   959    9.47162   14  390   11.00000    8.99335  18.2%   203   20s
  1336   979    9.10512   26  380   11.00000    9.03734  17.8%   198   25s
  1343   991    9.30601   17  326   11.00000    9.05726  17.7%   213   30s
  1612  1071    9.69446   29  237   11.00000    9.12236  17.1%   253   35s
  1967  1113    9.22137   23  308   11.00000    9.14824  16.8%   284   41s
  2521  1266    9.72075   40  209   11.00000    9.15695  16.8%   316   46s
  3201  1381    9.85986   30  299   11.00000    9.20796  16.3%   344   50s
  4413  1509    9.97915   30  267   11.00000    9.33579  15.1%   363   55s
  5676  1943    9.97987   24  278   11.00000    9.42089  14.4%   371   60s
  6986  2238   10.00000   38  154   11.00000    9.46434  14.0%   381   65s
  8343  2351   10.00000   28  179   11.00000    9.52647  13.4%   386   78s
  8698  2401   10.00000   35  203   11.00000    9.53652  13.3%   389   81s
* 8948   648              33      10.0000000    9.54164  4.58%   390   81s

Cutting planes:
  Cover: 9
  Implied bound: 1
  Clique: 151
  MIR: 9
  Flow cover: 89
  GUB cover: 5
  Zero half: 25
  Mod-K: 6
  RLT: 24
  BQP: 6

Explored 9091 nodes (3558437 simplex iterations) in 81.18 seconds (140.97 work units)
Thread count was 12 (of 12 available processors)

Solution count 10: 10 11 12 ... 25

Optimal solution found (tolerance 1.00e-04)
Best objective 1.000000000000e+01, best bound 1.000000000000e+01, gap 0.0000%
